(declare-fun h12 () (_ BitVec 32))
(assert (bvsge h12 (_ bv1 32)) )
(assert (bvsle h12 (_ bv31 32)) )

(declare-fun l0_0 () (_ BitVec 32))
(assert (bvsge l0_0 (_ bv1 32)) )
(assert (bvsle l0_0 (_ bv1964903306 32)) )

(define-fun PC121 ( (l0_0 (_ BitVec 32)) ) Bool
	(and (and (and (and (and (and (and (and (and (and (and (and ( bvsle h12 #x0000001F) ( = ( bvsmod h12 #x00000002) #x00000001)) ( bvsgt ( bvsdiv h12 #x00000002) #x00000000)) ( = ( bvsmod ( bvsdiv h12 #x00000002) #x00000002) #x00000001)) ( bvsgt ( bvmul l0_0 ( bvsmod ( bvmul ( bvsmod l0_0 #x751E0B8A) ( bvsmod l0_0 #x751E0B8A)) #x751E0B8A)) #x751E0B8A)) ( bvsgt ( bvsdiv ( bvsdiv h12 #x00000002) #x00000002) #x00000000)) ( = ( bvsmod ( bvsdiv ( bvsdiv h12 #x00000002) #x00000002) #x00000002) #x00000001)) ( bvsgt ( bvmul l0_0 ( bvsmod ( bvmul ( bvsmod ( bvsub ( bvmul l0_0 ( bvsmod ( bvmul ( bvsmod l0_0 #x751E0B8A) ( bvsmod l0_0 #x751E0B8A)) #x751E0B8A)) #x751E0B8A) #x751E0B8A) ( bvsmod ( bvsub ( bvmul l0_0 ( bvsmod ( bvmul ( bvsmod l0_0 #x751E0B8A) ( bvsmod l0_0 #x751E0B8A)) #x751E0B8A)) #x751E0B8A) #x751E0B8A)) #x751E0B8A)) #x751E0B8A)) ( bvsgt ( bvsdiv ( bvsdiv ( bvsdiv h12 #x00000002) #x00000002) #x00000002) #x00000000)) ( = ( bvsmod ( bvsdiv ( bvsdiv ( bvsdiv h12 #x00000002) #x00000002) #x00000002) #x00000002) #x00000001)) ( bvsgt ( bvmul l0_0 ( bvsmod ( bvmul ( bvsmod ( bvsub ( bvmul l0_0 ( bvsmod ( bvmul ( bvsmod ( bvsub ( bvmul l0_0 ( bvsmod ( bvmul ( bvsmod l0_0 #x751E0B8A) ( bvsmod l0_0 #x751E0B8A)) #x751E0B8A)) #x751E0B8A) #x751E0B8A) ( bvsmod ( bvsub ( bvmul l0_0 ( bvsmod ( bvmul ( bvsmod l0_0 #x751E0B8A) ( bvsmod l0_0 #x751E0B8A)) #x751E0B8A)) #x751E0B8A) #x751E0B8A)) #x751E0B8A)) #x751E0B8A) #x751E0B8A) ( bvsmod ( bvsub ( bvmul l0_0 ( bvsmod ( bvmul ( bvsmod ( bvsub ( bvmul l0_0 ( bvsmod ( bvmul ( bvsmod l0_0 #x751E0B8A) ( bvsmod l0_0 #x751E0B8A)) #x751E0B8A)) #x751E0B8A) #x751E0B8A) ( bvsmod ( bvsub ( bvmul l0_0 ( bvsmod ( bvmul ( bvsmod l0_0 #x751E0B8A) ( bvsmod l0_0 #x751E0B8A)) #x751E0B8A)) #x751E0B8A) #x751E0B8A)) #x751E0B8A)) #x751E0B8A) #x751E0B8A)) #x751E0B8A)) #x751E0B8A)) ( bvsgt ( bvsdiv ( bvsdiv ( bvsdiv ( bvsdiv h12 #x00000002) #x00000002) #x00000002) #x00000002) #x00000000)) ( bvsgt ( bvmul l0_0 ( bvsmod ( bvmul ( bvsmod ( bvsub ( bvmul l0_0 ( bvsmod ( bvmul ( bvsmod ( bvsub ( bvmul l0_0 ( bvsmod ( bvmul ( bvsmod ( bvsub ( bvmul l0_0 ( bvsmod ( bvmul ( bvsmod l0_0 #x751E0B8A) ( bvsmod l0_0 #x751E0B8A)) #x751E0B8A)) #x751E0B8A) #x751E0B8A) ( bvsmod ( bvsub ( bvmul l0_0 ( bvsmod ( bvmul ( bvsmod l0_0 #x751E0B8A) ( bvsmod l0_0 #x751E0B8A)) #x751E0B8A)) #x751E0B8A) #x751E0B8A)) #x751E0B8A)) #x751E0B8A) #x751E0B8A) ( bvsmod ( bvsub ( bvmul l0_0 ( bvsmod ( bvmul ( bvsmod ( bvsub ( bvmul l0_0 ( bvsmod ( bvmul ( bvsmod l0_0 #x751E0B8A) ( bvsmod l0_0 #x751E0B8A)) #x751E0B8A)) #x751E0B8A) #x751E0B8A) ( bvsmod ( bvsub ( bvmul l0_0 ( bvsmod ( bvmul ( bvsmod l0_0 #x751E0B8A) ( bvsmod l0_0 #x751E0B8A)) #x751E0B8A)) #x751E0B8A) #x751E0B8A)) #x751E0B8A)) #x751E0B8A) #x751E0B8A)) #x751E0B8A)) #x751E0B8A) #x751E0B8A) ( bvsmod ( bvsub ( bvmul l0_0 ( bvsmod ( bvmul ( bvsmod ( bvsub ( bvmul l0_0 ( bvsmod ( bvmul ( bvsmod ( bvsub ( bvmul l0_0 ( bvsmod ( bvmul ( bvsmod l0_0 #x751E0B8A) ( bvsmod l0_0 #x751E0B8A)) #x751E0B8A)) #x751E0B8A) #x751E0B8A) ( bvsmod ( bvsub ( bvmul l0_0 ( bvsmod ( bvmul ( bvsmod l0_0 #x751E0B8A) ( bvsmod l0_0 #x751E0B8A)) #x751E0B8A)) #x751E0B8A) #x751E0B8A)) #x751E0B8A)) #x751E0B8A) #x751E0B8A) ( bvsmod ( bvsub ( bvmul l0_0 ( bvsmod ( bvmul ( bvsmod ( bvsub ( bvmul l0_0 ( bvsmod ( bvmul ( bvsmod l0_0 #x751E0B8A) ( bvsmod l0_0 #x751E0B8A)) #x751E0B8A)) #x751E0B8A) #x751E0B8A) ( bvsmod ( bvsub ( bvmul l0_0 ( bvsmod ( bvmul ( bvsmod l0_0 #x751E0B8A) ( bvsmod l0_0 #x751E0B8A)) #x751E0B8A)) #x751E0B8A) #x751E0B8A)) #x751E0B8A)) #x751E0B8A) #x751E0B8A)) #x751E0B8A)) #x751E0B8A) #x751E0B8A)) #x751E0B8A)) #x751E0B8A)) 
)

(assert (PC121 l0_0)) 
(check-sat)
